%%%mzn-stat: initTime=0.022222137
%%%mzn-stat: objective=492
%%%mzn-stat: nodes=13491
%%%mzn-stat: restarts=3
%%%mzn-stat: peakDepth=1085
%%%mzn-stat: solveTime=14.454838408
%%%mzn-stat: variables=1800
%%%mzn-stat: propagators=1453
%%%mzn-stat: failures=10155
%%%mzn-stat: propagations=409203
%%%mzn-stat: nogoods=10155
%%%mzn-stat: AverageConflictSize=49.478975873953715
%%%mzn-stat: NumUnitNogoodsLearned=137
%%%mzn-stat: AverageLearnedNogoodLength=67.63121614967996
%%%mzn-stat: AverageBacktrackAmount=0
%%%mzn-stat: AverageLbd=31.045593303791236
%%%mzn-stat-end
maxleg = 492;
succ = array1d(1..150,[115, 74, 69, 150, 118, 122, 145, 142, 129, 114, 121, 55, 26, 95, 124, 24, 100, 126, 41, 117, 19, 60, 84, 112, 76, 110, 28, 80, 106, 62, 104, 65, 47, 23, 134, 87, 27, 6, 52, 107, 132, 53, 5, 1, 32, 85, 139, 68, 147, 98, 73, 137, 119, 101, 133, 31, 51, 54, 67, 81, 111, 43, 66, 37, 89, 15, 135, 77, 105, 3, 131, 93, 108, 46, 79, 136, 42, 44, 2, 91, 140, 8, 143, 7, 123, 88, 86, 59, 48, 22, 149, 138, 16, 82, 21, 63, 127, 109, 30, 97, 103, 10, 9, 64, 90, 50, 125, 18, 38, 144, 29, 99, 128, 61, 94, 40, 120, 14, 71, 35, 25, 116, 146, 4, 49, 102, 12, 20, 39, 113, 17, 36, 141, 56, 83, 72, 78, 45, 130, 75, 34, 13, 70, 148, 33, 58, 92, 96, 11, 57]);
% time elapsed: 19.13 s
----------
%%%mzn-stat: initTime=0.022222137
%%%mzn-stat: objective=169
%%%mzn-stat: nodes=20072
%%%mzn-stat: restarts=12
%%%mzn-stat: peakDepth=1085
%%%mzn-stat: solveTime=18.032206938
%%%mzn-stat: variables=1800
%%%mzn-stat: propagators=1453
%%%mzn-stat: failures=13687
%%%mzn-stat: propagations=506678
%%%mzn-stat: nogoods=13687
%%%mzn-stat: AverageConflictSize=42.70877474976255
%%%mzn-stat: NumUnitNogoodsLearned=137
%%%mzn-stat: AverageLearnedNogoodLength=60.873602688682695
%%%mzn-stat: AverageBacktrackAmount=0
%%%mzn-stat: AverageLbd=29.430554540805144
%%%mzn-stat-end
maxleg = 169;
succ = array1d(1..150,[115, 90, 69, 150, 118, 122, 145, 142, 129, 114, 121, 55, 26, 95, 124, 24, 100, 98, 41, 117, 19, 60, 84, 112, 76, 110, 28, 80, 111, 62, 104, 65, 47, 23, 134, 87, 27, 40, 52, 22, 132, 53, 5, 1, 32, 85, 139, 68, 147, 126, 73, 137, 119, 101, 133, 31, 51, 54, 67, 81, 10, 43, 66, 37, 89, 15, 135, 77, 105, 3, 131, 93, 108, 46, 79, 136, 42, 44, 2, 91, 140, 8, 143, 7, 123, 88, 86, 59, 48, 74, 149, 138, 16, 82, 21, 63, 127, 6, 30, 97, 103, 50, 9, 64, 49, 29, 125, 18, 38, 144, 61, 99, 128, 102, 94, 107, 120, 14, 71, 35, 25, 116, 146, 4, 70, 109, 12, 20, 39, 113, 17, 36, 141, 56, 83, 72, 78, 45, 130, 75, 34, 13, 106, 148, 33, 58, 92, 96, 11, 57]);
% time elapsed: 22.70 s
----------
%%%mzn-stat: initTime=0.022222137
%%%mzn-stat: objective=168
%%%mzn-stat: nodes=21492
%%%mzn-stat: restarts=13
%%%mzn-stat: peakDepth=1085
%%%mzn-stat: solveTime=18.265349842
%%%mzn-stat: variables=1800
%%%mzn-stat: propagators=1453
%%%mzn-stat: failures=13735
%%%mzn-stat: propagations=512743
%%%mzn-stat: nogoods=13735
%%%mzn-stat: AverageConflictSize=42.934473971605385
%%%mzn-stat: NumUnitNogoodsLearned=137
%%%mzn-stat: AverageLearnedNogoodLength=61.07783036039316
%%%mzn-stat: AverageBacktrackAmount=0
%%%mzn-stat: AverageLbd=29.526174008008738
%%%mzn-stat-end
maxleg = 168;
succ = array1d(1..150,[115, 90, 69, 150, 118, 122, 145, 142, 123, 114, 121, 55, 26, 95, 124, 24, 100, 98, 41, 117, 19, 60, 84, 112, 76, 110, 28, 80, 111, 62, 104, 65, 47, 23, 134, 87, 27, 40, 129, 22, 132, 53, 5, 1, 32, 85, 139, 68, 147, 126, 73, 137, 119, 101, 133, 31, 51, 54, 67, 81, 10, 43, 66, 37, 89, 15, 135, 77, 105, 3, 131, 93, 108, 46, 79, 136, 42, 44, 2, 91, 140, 8, 143, 7, 39, 88, 86, 59, 48, 74, 149, 138, 16, 82, 21, 63, 127, 6, 30, 97, 103, 50, 52, 64, 49, 29, 125, 18, 38, 144, 61, 99, 128, 102, 94, 107, 120, 14, 71, 35, 25, 116, 146, 4, 70, 109, 12, 20, 9, 113, 17, 36, 141, 56, 83, 72, 78, 45, 130, 75, 34, 13, 106, 148, 33, 58, 92, 96, 11, 57]);
% time elapsed: 22.93 s
----------
%%%mzn-stat: initTime=0.022222137
%%%mzn-stat: objective=138
%%%mzn-stat: nodes=23688
%%%mzn-stat: restarts=13
%%%mzn-stat: peakDepth=1085
%%%mzn-stat: solveTime=19.320442293
%%%mzn-stat: variables=1800
%%%mzn-stat: propagators=1453
%%%mzn-stat: failures=14617
%%%mzn-stat: propagations=543868
%%%mzn-stat: nogoods=14617
%%%mzn-stat: AverageConflictSize=41.695491550933845
%%%mzn-stat: NumUnitNogoodsLearned=137
%%%mzn-stat: AverageLearnedNogoodLength=60.33105288362865
%%%mzn-stat: AverageBacktrackAmount=0
%%%mzn-stat: AverageLbd=29.15256208524321
%%%mzn-stat-end
maxleg = 138;
succ = array1d(1..150,[115, 124, 69, 150, 118, 122, 145, 142, 54, 114, 121, 55, 26, 95, 22, 24, 100, 98, 41, 117, 19, 60, 84, 112, 76, 110, 28, 80, 10, 62, 104, 65, 47, 23, 134, 87, 27, 40, 123, 15, 132, 53, 5, 1, 32, 140, 139, 68, 147, 126, 73, 137, 119, 101, 133, 31, 51, 9, 67, 81, 111, 43, 66, 37, 89, 2, 135, 77, 105, 3, 131, 93, 108, 46, 79, 136, 42, 44, 4, 91, 85, 8, 143, 7, 58, 88, 86, 59, 48, 74, 149, 138, 16, 82, 21, 63, 127, 6, 30, 97, 129, 50, 52, 64, 49, 29, 125, 18, 38, 144, 102, 99, 128, 61, 94, 107, 120, 14, 71, 35, 25, 116, 146, 90, 70, 109, 12, 20, 39, 113, 17, 36, 141, 56, 83, 72, 78, 45, 130, 75, 34, 13, 106, 148, 33, 103, 92, 96, 11, 57]);
% time elapsed: 23.99 s
----------
==========
% time elapsed: 23.99 s
%%%mzn-stat: initTime=0.022222137
%%%mzn-stat: objective=138
%%%mzn-stat: nodes=23688
%%%mzn-stat: restarts=13
%%%mzn-stat: peakDepth=1085
%%%mzn-stat: solveTime=19.320460072
%%%mzn-stat: variables=1800
%%%mzn-stat: propagators=1453
%%%mzn-stat: failures=14617
%%%mzn-stat: propagations=543868
%%%mzn-stat: nogoods=14617
%%%mzn-stat: AverageConflictSize=41.695491550933845
%%%mzn-stat: NumUnitNogoodsLearned=137
%%%mzn-stat: AverageLearnedNogoodLength=60.33105288362865
%%%mzn-stat: AverageBacktrackAmount=0
%%%mzn-stat: AverageLbd=29.15256208524321
%%%mzn-stat-end
